33D32945 STP File, STP Format Version 1.0

SECTION Comment
Name "i640-101-PCST"
Creator "Indaco Biazzo" 
Remark "derived from Incidence graph by Cees Duin"
END

SECTION Graph
Nodes 640
Edges 960
E 1 102 199.000000
E 1 168 197.000000
E 1 291 201.000000
E 1 311 191.000000
E 1 313 196.000000
E 1 452 201.000000
E 1 543 210.000000
E 2 120 209.000000
E 2 536 190.000000
E 2 614 208.000000
E 3 85 200.000000
E 4 89 196.000000
E 4 169 198.000000
E 4 325 190.000000
E 5 129 202.000000
E 5 444 197.000000
E 5 452 197.000000
E 6 277 201.000000
E 6 393 199.000000
E 6 537 205.000000
E 6 606 196.000000
E 7 433 191.000000
E 7 575 200.000000
E 8 80 205.000000
E 8 138 211.000000
E 8 180 190.000000
E 8 182 189.000000
E 8 327 197.000000
E 8 339 203.000000
E 8 365 199.000000
E 8 383 200.000000
E 8 415 202.000000
E 8 586 196.000000
E 9 105 201.000000
E 9 430 210.000000
E 10 145 204.000000
E 10 151 201.000000
E 10 568 201.000000
E 11 394 199.000000
E 12 49 206.000000
E 12 57 201.000000
E 12 275 202.000000
E 12 294 204.000000
E 13 34 198.000000
E 13 182 199.000000
E 13 262 203.000000
E 13 401 195.000000
E 13 553 199.000000
E 14 88 201.000000
E 14 135 197.000000
E 15 29 202.000000
E 15 48 208.000000
E 15 122 204.000000
E 15 188 198.000000
E 15 357 197.000000
E 15 579 204.000000
E 16 169 202.000000
E 16 176 206.000000
E 16 623 198.000000
E 17 619 204.000000
E 18 206 195.000000
E 18 286 202.000000
E 18 360 198.000000
E 18 384 199.000000
E 18 582 200.000000
E 19 161 204.000000
E 19 439 200.000000
E 19 610 192.000000
E 20 23 294.000000
E 20 276 199.000000
E 20 366 202.000000
E 21 30 195.000000
E 21 179 209.000000
E 21 221 195.000000
E 21 455 201.000000
E 21 490 196.000000
E 21 585 202.000000
E 21 616 196.000000
E 22 292 208.000000
E 22 432 201.000000
E 22 616 198.000000
E 23 280 207.000000
E 24 76 193.000000
E 24 470 197.000000
E 24 537 206.000000
E 24 572 198.000000
E 25 110 187.000000
E 25 298 198.000000
E 25 584 199.000000
E 26 54 90.000000
E 26 97 96.000000
E 27 586 111.000000
E 27 616 94.000000
E 28 45 103.000000
E 28 55 98.000000
E 28 301 108.000000
E 28 580 104.000000
E 29 192 91.000000
E 29 581 107.000000
E 31 116 101.000000
E 31 234 105.000000
E 31 639 104.000000
E 32 113 105.000000
E 32 186 99.000000
E 32 369 105.000000
E 32 554 105.000000
E 32 577 104.000000
E 32 585 107.000000
E 33 311 100.000000
E 34 351 104.000000
E 34 396 88.000000
E 34 468 93.000000
E 35 121 97.000000
E 35 175 98.000000
E 36 264 100.000000
E 36 294 105.000000
E 36 298 91.000000
E 36 299 107.000000
E 36 400 103.000000
E 37 42 90.000000
E 38 111 97.000000
E 38 282 92.000000
E 38 448 97.000000
E 39 225 96.000000
E 39 240 98.000000
E 40 49 99.000000
E 40 199 103.000000
E 40 235 96.000000
E 41 65 95.000000
E 41 382 94.000000
E 41 392 106.000000
E 41 418 109.000000
E 41 419 96.000000
E 41 508 102.000000
E 41 509 104.000000
E 41 591 93.000000
E 42 75 104.000000
E 42 115 101.000000
E 42 387 111.000000
E 42 461 101.000000
E 42 521 102.000000
E 43 171 97.000000
E 43 343 96.000000
E 43 476 104.000000
E 43 543 99.000000
E 43 591 95.000000
E 44 198 98.000000
E 44 237 105.000000
E 44 313 101.000000
E 44 330 95.000000
E 44 449 93.000000
E 44 519 98.000000
E 44 635 106.000000
E 45 412 96.000000
E 46 240 107.000000
E 46 487 100.000000
E 46 523 94.000000
E 47 115 101.000000
E 49 92 97.000000
E 49 221 101.000000
E 49 337 105.000000
E 49 507 96.000000
E 50 554 101.000000
E 51 316 105.000000
E 51 480 95.000000
E 51 597 109.000000
E 52 273 106.000000
E 53 75 93.000000
E 54 184 98.000000
E 54 413 97.000000
E 55 254 102.000000
E 55 399 98.000000
E 55 471 98.000000
E 55 555 96.000000
E 55 580 111.000000
E 56 270 95.000000
E 56 524 103.000000
E 57 368 102.000000
E 57 527 95.000000
E 58 131 100.000000
E 58 298 91.000000
E 58 573 107.000000
E 58 630 101.000000
E 59 466 103.000000
E 59 587 107.000000
E 60 634 101.000000
E 61 291 96.000000
E 61 372 100.000000
E 61 498 94.000000
E 61 550 93.000000
E 62 230 100.000000
E 62 318 104.000000
E 62 542 102.000000
E 63 349 103.000000
E 63 579 100.000000
E 64 82 108.000000
E 65 116 100.000000
E 65 387 89.000000
E 66 141 98.000000
E 66 342 99.000000
E 66 613 104.000000
E 67 68 108.000000
E 67 155 101.000000
E 67 423 98.000000
E 67 430 97.000000
E 67 537 89.000000
E 67 612 100.000000
E 68 136 99.000000
E 68 151 101.000000
E 68 166 107.000000
E 68 172 103.000000
E 68 242 100.000000
E 68 260 99.000000
E 68 278 99.000000
E 68 403 100.000000
E 68 517 102.000000
E 68 632 86.000000
E 69 218 97.000000
E 69 464 108.000000
E 70 177 95.000000
E 70 320 105.000000
E 70 521 98.000000
E 70 591 100.000000
E 71 215 101.000000
E 71 388 102.000000
E 72 112 103.000000
E 72 222 99.000000
E 72 295 99.000000
E 72 303 106.000000
E 73 359 96.000000
E 73 528 96.000000
E 74 113 98.000000
E 74 168 102.000000
E 74 237 102.000000
E 74 259 107.000000
E 74 275 93.000000
E 74 372 105.000000
E 74 435 94.000000
E 75 130 93.000000
E 75 180 96.000000
E 75 204 96.000000
E 75 453 104.000000
E 75 609 102.000000
E 76 242 109.000000
E 76 335 98.000000
E 77 82 89.000000
E 77 524 102.000000
E 78 288 102.000000
E 78 569 104.000000
E 79 139 96.000000
E 79 150 97.000000
E 79 186 96.000000
E 79 289 92.000000
E 79 413 101.000000
E 79 628 107.000000
E 80 315 100.000000
E 80 333 99.000000
E 80 620 102.000000
E 81 143 107.000000
E 81 205 100.000000
E 81 328 100.000000
E 82 137 102.000000
E 82 308 96.000000
E 82 588 107.000000
E 83 295 98.000000
E 83 429 92.000000
E 83 583 94.000000
E 84 92 101.000000
E 84 370 98.000000
E 84 546 104.000000
E 84 628 93.000000
E 85 501 100.000000
E 85 596 92.000000
E 86 131 100.000000
E 86 505 95.000000
E 87 223 91.000000
E 87 396 111.000000
E 87 398 100.000000
E 87 473 99.000000
E 88 543 104.000000
E 90 91 99.000000
E 90 540 97.000000
E 90 614 93.000000
E 92 154 94.000000
E 92 227 98.000000
E 92 300 97.000000
E 93 257 96.000000
E 93 438 102.000000
E 93 618 102.000000
E 94 100 105.000000
E 94 312 108.000000
E 94 438 111.000000
E 95 529 102.000000
E 95 633 110.000000
E 96 260 85.000000
E 96 316 105.000000
E 97 262 104.000000
E 97 346 107.000000
E 97 373 106.000000
E 97 552 102.000000
E 98 543 95.000000
E 99 412 99.000000
E 100 230 104.000000
E 100 536 95.000000
E 100 565 87.000000
E 101 502 99.000000
E 101 639 100.000000
E 103 150 99.000000
E 103 621 111.000000
E 104 356 95.000000
E 104 414 97.000000
E 104 444 97.000000
E 104 447 92.000000
E 105 147 95.000000
E 105 239 107.000000
E 105 268 98.000000
E 105 309 103.000000
E 105 518 95.000000
E 106 518 93.000000
E 106 553 94.000000
E 107 344 99.000000
E 108 281 102.000000
E 108 325 103.000000
E 108 410 104.000000
E 108 413 98.000000
E 108 464 105.000000
E 108 620 102.000000
E 109 451 97.000000
E 109 603 107.000000
E 110 558 94.000000
E 110 575 95.000000
E 110 581 100.000000
E 111 471 97.000000
E 111 624 113.000000
E 112 125 94.000000
E 112 263 96.000000
E 112 576 96.000000
E 114 163 94.000000
E 114 286 104.000000
E 114 343 101.000000
E 114 398 102.000000
E 114 436 106.000000
E 114 546 103.000000
E 114 610 109.000000
E 115 269 109.000000
E 115 336 103.000000
E 115 599 100.000000
E 115 600 102.000000
E 117 140 98.000000
E 117 203 106.000000
E 118 213 102.000000
E 118 396 100.000000
E 119 570 97.000000
E 120 530 101.000000
E 120 618 93.000000
E 121 145 93.000000
E 121 447 98.000000
E 121 489 91.000000
E 121 501 102.000000
E 122 156 103.000000
E 122 428 107.000000
E 123 350 94.000000
E 123 496 103.000000
E 124 233 108.000000
E 124 516 109.000000
E 125 357 97.000000
E 125 520 98.000000
E 126 374 90.000000
E 126 550 95.000000
E 127 330 104.000000
E 128 373 100.000000
E 128 412 98.000000
E 129 334 102.000000
E 129 453 99.000000
E 130 338 98.000000
E 131 172 94.000000
E 131 231 100.000000
E 131 371 95.000000
E 132 286 104.000000
E 133 491 99.000000
E 134 196 104.000000
E 134 259 101.000000
E 134 517 97.000000
E 134 525 98.000000
E 135 235 114.000000
E 135 361 102.000000
E 137 191 98.000000
E 137 328 103.000000
E 138 160 98.000000
E 138 329 96.000000
E 138 483 97.000000
E 138 558 93.000000
E 138 619 95.000000
E 139 279 96.000000
E 139 563 96.000000
E 140 626 96.000000
E 141 248 96.000000
E 141 288 96.000000
E 141 598 94.000000
E 142 231 102.000000
E 142 473 100.000000
E 143 201 104.000000
E 143 305 104.000000
E 143 402 101.000000
E 144 337 108.000000
E 144 352 90.000000
E 144 574 91.000000
E 145 295 91.000000
E 145 349 104.000000
E 145 578 93.000000
E 146 423 88.000000
E 147 352 100.000000
E 147 583 102.000000
E 148 262 98.000000
E 148 314 96.000000
E 149 315 92.000000
E 149 586 108.000000
E 149 636 100.000000
E 150 154 95.000000
E 150 183 97.000000
E 150 297 101.000000
E 151 268 99.000000
E 152 184 95.000000
E 152 322 109.000000
E 153 248 96.000000
E 154 158 101.000000
E 154 185 96.000000
E 154 484 99.000000
E 155 429 101.000000
E 155 607 93.000000
E 156 204 104.000000
E 156 250 96.000000
E 157 237 104.000000
E 157 618 104.000000
E 158 187 105.000000
E 158 320 97.000000
E 158 365 104.000000
E 158 597 90.000000
E 159 389 90.000000
E 160 177 100.000000
E 160 311 101.000000
E 162 279 94.000000
E 162 371 103.000000
E 162 554 99.000000
E 164 210 105.000000
E 164 594 97.000000
E 165 193 98.000000
E 165 344 92.000000
E 165 438 92.000000
E 165 543 94.000000
E 165 640 93.000000
E 166 404 96.000000
E 166 499 95.000000
E 167 205 101.000000
E 167 337 97.000000
E 167 633 94.000000
E 168 445 93.000000
E 169 517 94.000000
E 170 251 88.000000
E 170 350 100.000000
E 170 545 107.000000
E 170 614 91.000000
E 171 294 96.000000
E 173 412 104.000000
E 173 441 92.000000
E 174 343 99.000000
E 176 330 94.000000
E 176 403 104.000000
E 176 459 96.000000
E 177 299 93.000000
E 177 406 110.000000
E 177 531 97.000000
E 178 257 100.000000
E 178 608 102.000000
E 179 534 110.000000
E 179 605 101.000000
E 180 191 104.000000
E 180 304 107.000000
E 180 322 96.000000
E 181 339 99.000000
E 182 460 103.000000
E 182 464 103.000000
E 183 216 98.000000
E 183 242 96.000000
E 183 555 98.000000
E 184 438 92.000000
E 185 251 104.000000
E 185 620 99.000000
E 186 208 100.000000
E 186 302 100.000000
E 186 581 92.000000
E 186 615 103.000000
E 187 297 93.000000
E 187 353 104.000000
E 187 522 99.000000
E 188 452 107.000000
E 188 502 98.000000
E 189 220 104.000000
E 189 612 100.000000
E 190 347 101.000000
E 191 258 105.000000
E 191 350 109.000000
E 191 542 101.000000
E 191 561 101.000000
E 192 347 93.000000
E 192 439 110.000000
E 192 517 106.000000
E 193 331 95.000000
E 193 468 102.000000
E 194 278 94.000000
E 194 516 106.000000
E 195 501 105.000000
E 196 346 97.000000
E 196 357 95.000000
E 196 543 93.000000
E 197 495 103.000000
E 198 274 103.000000
E 198 335 95.000000
E 198 370 97.000000
E 198 516 101.000000
E 198 631 102.000000
E 200 268 107.000000
E 201 423 93.000000
E 201 489 99.000000
E 201 611 94.000000
E 202 421 95.000000
E 203 226 98.000000
E 203 262 90.000000
E 203 365 106.000000
E 205 450 97.000000
E 206 247 104.000000
E 206 350 96.000000
E 207 313 91.000000
E 209 307 104.000000
E 209 316 97.000000
E 210 249 97.000000
E 210 416 97.000000
E 210 455 105.000000
E 210 526 106.000000
E 211 298 101.000000
E 211 596 98.000000
E 212 440 109.000000
E 213 584 96.000000
E 214 260 102.000000
E 214 379 91.000000
E 214 585 99.000000
E 217 362 88.000000
E 218 550 105.000000
E 218 602 91.000000
E 219 287 98.000000
E 219 554 96.000000
E 220 248 104.000000
E 221 358 107.000000
E 221 426 108.000000
E 223 498 97.000000
E 223 637 103.000000
E 224 610 96.000000
E 224 617 103.000000
E 225 262 100.000000
E 225 271 108.000000
E 227 297 100.000000
E 228 348 104.000000
E 228 417 100.000000
E 228 532 97.000000
E 229 309 97.000000
E 229 424 99.000000
E 230 381 90.000000
E 230 455 100.000000
E 230 552 98.000000
E 231 589 103.000000
E 231 604 102.000000
E 232 403 97.000000
E 232 538 86.000000
E 232 566 108.000000
E 233 462 103.000000
E 234 381 107.000000
E 234 508 91.000000
E 234 513 97.000000
E 235 370 102.000000
E 235 439 97.000000
E 235 583 91.000000
E 235 598 96.000000
E 236 501 97.000000
E 237 277 98.000000
E 237 321 94.000000
E 237 349 95.000000
E 237 441 96.000000
E 237 458 100.000000
E 238 454 112.000000
E 238 467 102.000000
E 238 555 96.000000
E 239 502 96.000000
E 239 504 96.000000
E 240 397 94.000000
E 240 425 101.000000
E 240 522 98.000000
E 241 395 93.000000
E 241 582 98.000000
E 242 640 101.000000
E 243 626 93.000000
E 244 311 106.000000
E 244 394 112.000000
E 244 476 99.000000
E 244 533 98.000000
E 245 468 105.000000
E 246 275 99.000000
E 247 398 95.000000
E 247 546 100.000000
E 249 507 109.000000
E 250 515 96.000000
E 250 537 98.000000
E 251 518 102.000000
E 252 431 94.000000
E 252 493 97.000000
E 253 573 94.000000
E 254 273 91.000000
E 254 357 102.000000
E 254 608 98.000000
E 254 624 110.000000
E 255 475 92.000000
E 255 530 102.000000
E 255 534 93.000000
E 256 366 94.000000
E 256 393 103.000000
E 256 522 100.000000
E 257 479 104.000000
E 257 501 93.000000
E 257 615 99.000000
E 259 498 98.000000
E 260 341 97.000000
E 260 412 105.000000
E 260 543 98.000000
E 260 586 104.000000
E 261 350 104.000000
E 261 546 92.000000
E 264 506 99.000000
E 265 438 101.000000
E 265 624 109.000000
E 266 606 95.000000
E 267 515 98.000000
E 267 527 96.000000
E 268 431 93.000000
E 268 462 101.000000
E 268 634 104.000000
E 269 362 100.000000
E 269 375 102.000000
E 269 541 88.000000
E 269 581 105.000000
E 269 622 98.000000
E 271 295 95.000000
E 271 323 97.000000
E 271 424 93.000000
E 271 508 101.000000
E 271 514 94.000000
E 272 467 95.000000
E 272 493 100.000000
E 273 412 98.000000
E 276 522 91.000000
E 276 632 98.000000
E 277 518 103.000000
E 277 576 96.000000
E 279 344 102.000000
E 279 640 97.000000
E 280 284 105.000000
E 280 370 103.000000
E 282 313 104.000000
E 282 314 100.000000
E 282 490 100.000000
E 283 387 94.000000
E 283 486 99.000000
E 283 505 104.000000
E 284 497 96.000000
E 285 392 101.000000
E 285 521 103.000000
E 285 542 101.000000
E 286 538 101.000000
E 287 294 98.000000
E 288 492 102.000000
E 290 418 101.000000
E 290 508 101.000000
E 291 451 90.000000
E 291 464 90.000000
E 291 586 101.000000
E 292 610 98.000000
E 293 527 101.000000
E 294 447 106.000000
E 294 452 90.000000
E 294 564 96.000000
E 295 358 100.000000
E 295 372 100.000000
E 295 415 99.000000
E 295 566 94.000000
E 295 633 101.000000
E 296 385 115.000000
E 296 477 99.000000
E 296 594 89.000000
E 296 598 107.000000
E 297 539 100.000000
E 298 455 102.000000
E 301 483 97.000000
E 301 538 96.000000
E 301 595 98.000000
E 302 586 96.000000
E 302 618 99.000000
E 303 404 105.000000
E 304 479 96.000000
E 304 511 103.000000
E 305 538 100.000000
E 306 465 92.000000
E 306 469 99.000000
E 306 587 99.000000
E 307 395 95.000000
E 307 502 100.000000
E 307 537 94.000000
E 308 519 107.000000
E 309 395 106.000000
E 310 321 108.000000
E 310 336 100.000000
E 310 593 97.000000
E 311 354 105.000000
E 313 352 103.000000
E 313 492 97.000000
E 313 575 102.000000
E 316 364 97.000000
E 316 631 104.000000
E 317 467 102.000000
E 317 617 102.000000
E 318 534 97.000000
E 319 567 87.000000
E 320 483 99.000000
E 322 636 108.000000
E 323 368 97.000000
E 324 433 104.000000
E 325 410 101.000000
E 325 594 99.000000
E 326 386 91.000000
E 326 484 104.000000
E 326 604 98.000000
E 327 375 90.000000
E 327 619 103.000000
E 328 493 100.000000
E 329 443 113.000000
E 330 601 113.000000
E 331 561 103.000000
E 331 630 109.000000
E 332 340 106.000000
E 332 359 97.000000
E 334 635 95.000000
E 335 351 105.000000
E 335 387 109.000000
E 335 405 90.000000
E 335 526 99.000000
E 335 585 98.000000
E 336 593 106.000000
E 337 488 93.000000
E 338 351 88.000000
E 338 495 94.000000
E 338 508 101.000000
E 339 386 94.000000
E 339 532 98.000000
E 340 389 96.000000
E 340 449 94.000000
E 340 579 99.000000
E 341 371 102.000000
E 341 471 96.000000
E 341 491 102.000000
E 343 496 95.000000
E 344 356 102.000000
E 344 559 98.000000
E 344 614 95.000000
E 344 638 97.000000
E 345 404 97.000000
E 347 369 107.000000
E 347 382 103.000000
E 348 451 111.000000
E 348 541 96.000000
E 350 449 99.000000
E 352 381 92.000000
E 352 560 92.000000
E 352 564 105.000000
E 353 434 103.000000
E 353 450 94.000000
E 353 498 101.000000
E 355 444 113.000000
E 355 545 95.000000
E 356 491 105.000000
E 356 608 95.000000
E 358 503 101.000000
E 359 571 91.000000
E 361 518 99.000000
E 361 545 92.000000
E 363 451 107.000000
E 363 490 112.000000
E 363 606 91.000000
E 364 438 107.000000
E 366 521 100.000000
E 366 631 93.000000
E 367 565 114.000000
E 368 562 99.000000
E 371 380 99.000000
E 371 549 98.000000
E 372 428 105.000000
E 372 454 102.000000
E 374 543 97.000000
E 375 467 91.000000
E 376 520 103.000000
E 377 397 98.000000
E 378 452 98.000000
E 378 629 92.000000
E 379 440 102.000000
E 380 528 110.000000
E 382 502 102.000000
E 386 472 99.000000
E 387 488 91.000000
E 388 449 98.000000
E 388 531 98.000000
E 388 540 95.000000
E 388 551 103.000000
E 388 561 104.000000
E 389 472 98.000000
E 389 590 106.000000
E 390 593 106.000000
E 391 446 109.000000
E 391 500 103.000000
E 393 471 105.000000
E 393 510 97.000000
E 393 524 96.000000
E 395 527 101.000000
E 396 526 98.000000
E 396 568 89.000000
E 398 503 103.000000
E 402 625 98.000000
E 405 583 96.000000
E 407 536 94.000000
E 408 464 98.000000
E 408 535 95.000000
E 408 577 105.000000
E 408 582 102.000000
E 409 435 96.000000
E 411 437 103.000000
E 411 522 103.000000
E 412 422 92.000000
E 412 470 97.000000
E 418 549 97.000000
E 420 455 101.000000
E 421 633 99.000000
E 424 577 101.000000
E 426 518 106.000000
E 427 588 107.000000
E 432 513 99.000000
E 433 442 83.000000
E 433 518 109.000000
E 434 459 103.000000
E 434 484 111.000000
E 434 580 107.000000
E 435 495 102.000000
E 435 596 98.000000
E 436 477 107.000000
E 437 497 99.000000
E 438 529 101.000000
E 438 570 98.000000
E 438 584 91.000000
E 440 449 100.000000
E 441 548 102.000000
E 442 453 92.000000
E 447 467 100.000000
E 448 466 98.000000
E 448 617 100.000000
E 449 474 105.000000
E 452 534 93.000000
E 453 572 90.000000
E 453 591 100.000000
E 454 486 106.000000
E 455 456 97.000000
E 455 482 91.000000
E 456 555 99.000000
E 456 556 99.000000
E 456 583 99.000000
E 457 508 95.000000
E 457 599 106.000000
E 461 465 102.000000
E 461 587 106.000000
E 463 470 96.000000
E 464 478 99.000000
E 464 479 108.000000
E 464 508 97.000000
E 465 614 101.000000
E 467 632 100.000000
E 469 624 104.000000
E 470 557 95.000000
E 472 483 90.000000
E 472 567 98.000000
E 478 517 102.000000
E 480 594 93.000000
E 481 515 103.000000
E 481 578 101.000000
E 482 491 98.000000
E 482 575 99.000000
E 483 495 101.000000
E 484 573 103.000000
E 485 588 97.000000
E 485 624 104.000000
E 488 495 103.000000
E 494 590 89.000000
E 495 509 101.000000
E 495 520 99.000000
E 496 547 108.000000
E 497 503 90.000000
E 498 566 100.000000
E 500 517 107.000000
E 501 610 104.000000
E 502 551 104.000000
E 502 567 99.000000
E 508 582 96.000000
E 510 631 102.000000
E 511 529 92.000000
E 512 529 109.000000
E 513 541 99.000000
E 513 576 101.000000
E 515 597 105.000000
E 517 567 107.000000
E 518 577 94.000000
E 518 626 95.000000
E 519 532 100.000000
E 520 564 101.000000
E 522 586 106.000000
E 526 590 99.000000
E 534 544 104.000000
E 535 536 96.000000
E 536 553 96.000000
E 536 592 96.000000
E 536 598 102.000000
E 537 567 101.000000
E 543 631 94.000000
E 545 606 100.000000
E 547 586 99.000000
E 548 627 97.000000
E 548 636 99.000000
E 552 569 96.000000
E 555 594 100.000000
E 556 611 96.000000
E 558 611 100.000000
E 559 609 109.000000
E 560 620 97.000000
E 563 583 97.000000
E 565 571 102.000000
E 571 635 105.000000
E 572 578 102.000000
E 576 639 102.000000
E 585 610 101.000000
E 586 598 96.000000
E 587 613 102.000000
E 589 601 108.000000
E 595 603 103.000000
E 603 638 107.000000
E 604 609 100.000000
E 606 619 101.000000
E 607 618 100.000000
E 624 639 98.000000
E 634 637 100.000000
END

SECTION Terminals
Terminals 25
TP 1 624.000000
TP 2 540.000000
TP 3 500.000000
TP 4 688.000000
TP 5 700.000000
TP 6 204.000000
TP 7 580.000000
TP 8 148.000000
TP 9 436.000000
TP 10 172.000000
TP 11 756.000000
TP 12 432.000000
TP 13 368.000000
TP 14 952.000000
TP 15 316.000000
TP 16 1008.000000
TP 17 780.000000
TP 18 1000.000000
TP 19 220.000000
TP 20 232.000000
TP 21 960.000000
TP 22 1144.000000
TP 23 628.000000
TP 24 40.000000
TP 25 152.000000
END

EOF
